TYPE : Vertex Cover
DIMENSION: 21
EDGE_DATA_SECTION:
0 2
0 10
0 16
1 4
1 9
1 14
2 8
3 12
3 19
4 5
4 11
4 19
5 13
5 19
5 20
7 8
7 16
8 16
10 15
13 19
14 15
15 16
18 19
-1
VERTEX_DEGREE:
3.0 3.0 2.0 2.0 4.0 4.0 0.0 2.0 3.0 1.0 2.0 1.0 1.0 2.0 2.0 3.0 4.0 0.0 1.0 5.0 1.0
VERTEX_COVER:
0 1 3 4 5 8 15 16 19
EOF
